************************************************************************
file with basedata            : j60_25.bas
initial value random generator: 5615
************************************************************************
projects                      :  1
jobs (incl. supersource/sink ):  62
horizon                       :  305
RESOURCES
  - renewable                 :  4   R
  - nonrenewable              :  0   N
  - doubly constrained        :  0   D
************************************************************************
PROJECT INFORMATION:
pronr.  #jobs rel.date duedate tardcost  MPM-Time
    1     60      0       59       43       59
************************************************************************
PRECEDENCE RELATIONS:
jobnr.    #modes  #successors   successors
   1        1          3           2   3   4
   2        1          3           5   6  17
   3        1          3          10  11  15
   4        1          3           7  13  18
   5        1          2          24  49
   6        1          3           8  21  43
   7        1          3           9  14  20
   8        1          3          12  44  48
   9        1          1          56
  10        1          1          27
  11        1          2          31  37
  12        1          2          26  29
  13        1          1          16
  14        1          1          49
  15        1          1          19
  16        1          3          25  40  61
  17        1          1          28
  18        1          2          22  32
  19        1          2          23  58
  20        1          1          34
  21        1          1          55
  22        1          3          27  30  33
  23        1          2          36  45
  24        1          2          43  51
  25        1          1          41
  26        1          1          35
  27        1          1          29
  28        1          1          53
  29        1          1          39
  30        1          1          57
  31        1          2          52  59
  32        1          1          42
  33        1          1          48
  34        1          2          37  51
  35        1          1          52
  36        1          2          38  44
  37        1          1          50
  38        1          1          52
  39        1          1          54
  40        1          1          45
  41        1          1          54
  42        1          1          49
  43        1          1          46
  44        1          1          47
  45        1          1          56
  46        1          2          47  53
  47        1          1          60
  48        1          2          50  51
  49        1          2          50  56
  50        1          1          60
  51        1          1          58
  52        1          1          61
  53        1          1          58
  54        1          1          59
  55        1          2          57  60
  56        1          1          57
  57        1          1          59
  58        1          1          61
  59        1          1          62
  60        1          1          62
  61        1          1          62
  62        1          0        
************************************************************************
REQUESTS/DURATIONS:
jobnr. mode duration  R 1  R 2  R 3  R 4
------------------------------------------------------------------------
  1      1     0       0    0    0    0
  2      1     9       2    2    0    7
  3      1     4       8    8    4    0
  4      1     6       5    6    7    1
  5      1     2       7    3    6    0
  6      1     3      10    0   10    7
  7      1     3       1    0    6    6
  8      1     4       0    7   10    0
  9      1     3       9    0    8    0
 10      1     5       7    3    6    0
 11      1     8       3    0    7    6
 12      1     8       8    4    0    6
 13      1     2       0    7    7    4
 14      1     8       8    1    0    9
 15      1     6       8    0    5    5
 16      1     1       0    9    1    0
 17      1     3       7    0    3    1
 18      1     4       1    7    4    5
 19      1     1       5    9    0    6
 20      1     1       4    2    0    0
 21      1     2       0   10    1    6
 22      1     7       6    2    4    1
 23      1     5      10    4    9    0
 24      1     5       4    0    5    5
 25      1     7       0    2    3    7
 26      1    10       2    5    7    0
 27      1     4       0    3    7    8
 28      1     1       9    0    5    9
 29      1     9       5    9    4    6
 30      1     4       2    4    5   10
 31      1     7       4    8    0    0
 32      1     5       4    7   10    2
 33      1     2       6    4    1    0
 34      1    10       5    7    0    8
 35      1     1       8    9    0    3
 36      1     9       6   10    5   10
 37      1     3       8    9    8    0
 38      1     7       1    0    2   10
 39      1    10       2    9    8    4
 40      1     7       6    4    9   10
 41      1     9       1    8    8    8
 42      1     2       1    0    8    3
 43      1     4       3    5    9   10
 44      1    10       0   10    8    7
 45      1     1      10    6    8    0
 46      1     2       0    1    4    2
 47      1     1       0    6    8    0
 48      1     5       0    7   10    4
 49      1     4      10    0    9    1
 50      1     4       3    4    0    3
 51      1     9       1    5    0    3
 52      1     6       3    0    7    0
 53      1    10       0   10    0    7
 54      1     7       0    0    7    8
 55      1     5       5    2    3    0
 56      1     1      10    6    0    4
 57      1     6       5    5    1    3
 58      1     4       1   10    7    0
 59      1     9       3    6    0    0
 60      1     3       5    0    0    4
 61      1     7       7   10    8    0
 62      1     0       0    0    0    0
************************************************************************
RESOURCEAVAILABILITIES:
  R 1  R 2  R 3  R 4
   22   19   22   21
************************************************************************
